
===== New CPLEX run =====
Instance: /home/yorig/tuner/mpils-tests/instances/miplib/easy/mas74.mps
Config: /scratch/yorig/mpils-results-grid-ticks-10000-divide/easy/16proc/seed-4/5_mas74_seed-4_20260429_043455/expansion/config_param_CPXPARAM_Preprocessing_RepeatPresolve_2_iter_5.prm
========================

Selected objective sense:  MINIMIZE
Selected objective  name:  obj
Selected RHS        name:  rhs
Selected bound      name:  bnd
Version identifier: 22.1.2.0 | 2024-11-26 | 0edbb82fd
CPXPARAM_Simplex_DGradient                       1
CPXPARAM_Threads                                 8
CPXPARAM_Parallel                                1
CPXPARAM_MIP_Cuts_Cliques                        1
CPXPARAM_MIP_Cuts_Covers                         -1
CPXPARAM_MIP_OrderType                           2
CPXPARAM_MIP_Strategy_PresolveNode               -1
CPXPARAM_MIP_Cuts_FlowCovers                     -1
CPXPARAM_MIP_Cuts_Implied                        -1
CPXPARAM_MIP_Cuts_GUBCovers                      -1
CPXPARAM_MIP_Limits_GomoryCand                   10
CPXPARAM_MIP_Cuts_Gomory                         2
CPXPARAM_MIP_Cuts_PathCut                        2
CPXPARAM_MIP_Cuts_MIRCut                         -1
CPXPARAM_MIP_Cuts_Disjunctive                    2
CPXPARAM_Emphasis_MIP                            3
CPXPARAM_Preprocessing_RepeatPresolve            2
CPXPARAM_MIP_Strategy_RINSHeur                   -1
CPXPARAM_DetTimeLimit                            10000
CPXPARAM_MIP_Limits_CutsFactor                   1
Generated priority order by increasing bound range.
Found incumbent of value 157344.610330 after 0.00 sec. (0.02 ticks)
Tried aggregator 1 time.
MIP Presolve eliminated 0 rows and 3 columns.
Reduced MIP has 13 rows, 148 columns, and 1682 nonzeros.
Reduced MIP has 145 binaries, 2 generals, 0 SOSs, and 0 indicators.
Presolve time = 0.00 sec. (0.84 ticks)
Probing time = 0.00 sec. (0.09 ticks)
Tried aggregator 1 time.
Detecting symmetries...
Reduced MIP has 13 rows, 148 columns, and 1682 nonzeros.
Reduced MIP has 145 binaries, 2 generals, 0 SOSs, and 0 indicators.
Presolve time = 0.00 sec. (0.79 ticks)
Probing time = 0.00 sec. (0.09 ticks)
MIP emphasis: best bound.
MIP search method: dynamic search.
Parallel mode: deterministic, using up to 8 threads.
Root relaxation solution time = 0.01 sec. (0.60 ticks)

        Nodes                                         Cuts/
   Node  Left     Objective  IInf  Best Integer    Best Bound    ItCnt     Gap

*     0+    0                       157344.6103        0.0000           100.00%
*     0+    0                        51840.4943        0.0000           100.00%
      0     0    10482.7953    12    51840.4943    10482.7953       36   79.78%
*     0+    0                        19197.4680    10482.7953            45.39%
*     0+    0                        15240.3317    10482.7953            31.22%
*     0+    0                        14372.8713    10482.7953            27.07%
Detecting symmetries...

Repeating presolve.
Tried aggregator 1 time.
MIP Presolve eliminated 0 rows and 1 columns.
Reduced MIP has 13 rows, 147 columns, and 1669 nonzeros.
Reduced MIP has 144 binaries, 2 generals, 0 SOSs, and 0 indicators.
Presolve time = 0.00 sec. (0.58 ticks)
Probing time = 0.00 sec. (0.09 ticks)
Tried aggregator 1 time.
Detecting symmetries...
Reduced MIP has 13 rows, 147 columns, and 1669 nonzeros.
Reduced MIP has 144 binaries, 2 generals, 0 SOSs, and 0 indicators.
Presolve time = 0.00 sec. (0.79 ticks)
Represolve time = 0.00 sec. (1.75 ticks)
Probing time = 0.00 sec. (0.09 ticks)
MIP emphasis: best bound.
MIP search method: dynamic search.
Parallel mode: deterministic, using up to 8 threads.
Root relaxation solution time = 0.00 sec. (0.60 ticks)

        Nodes                                         Cuts/
   Node  Left     Objective  IInf  Best Integer    Best Bound    ItCnt     Gap

*     0+    0                        14372.8713    10513.0180            26.86%
      0     0    10482.7953    12    14372.8713    10513.0180       72   26.86%
Detecting symmetries...
      0     2    10482.7953    12    14372.8713    10513.0180       72   26.86%
Elapsed time = 0.46 sec. (11.60 ticks, tree = 0.02 MB, solutions = 5)
*     4+    1                        13279.7434    10526.8584            20.73%
*    96+   18                        13240.9956    10557.5181            20.27%
*   103+   22                        13023.6944    10557.5181            18.94%
*   323+  111                        12675.9486    10640.6599            16.06%
*  1002+  594                        12609.9486    10686.5836            15.25%

Performing restart 1

Repeating presolve.
Tried aggregator 1 time.
MIP Presolve eliminated 0 rows and 29 columns.
Reduced MIP has 13 rows, 118 columns, and 1295 nonzeros.
Reduced MIP has 115 binaries, 2 generals, 0 SOSs, and 0 indicators.
Presolve time = 0.00 sec. (0.46 ticks)
Tried aggregator 1 time.
Reduced MIP has 13 rows, 118 columns, and 1295 nonzeros.
Reduced MIP has 115 binaries, 2 generals, 0 SOSs, and 0 indicators.
Presolve time = 0.00 sec. (0.60 ticks)
Represolve time = 0.00 sec. (1.43 ticks)

Repeating presolve.
Tried aggregator 1 time.
Reduced MIP has 13 rows, 118 columns, and 1295 nonzeros.
Reduced MIP has 116 binaries, 1 generals, 0 SOSs, and 0 indicators.
Presolve time = 0.00 sec. (0.43 ticks)
Tried aggregator 1 time.
Reduced MIP has 13 rows, 118 columns, and 1295 nonzeros.
Reduced MIP has 116 binaries, 1 generals, 0 SOSs, and 0 indicators.
Presolve time = 0.00 sec. (0.60 ticks)
Represolve time = 0.00 sec. (1.34 ticks)
*  4045+  929                        12323.6944    10751.1399            12.76%
* 10078+ 5847                        12217.3713    10887.9849            10.88%
* 11078+ 7353                        12062.5589    10896.9336             9.66%
  16248 12912    11070.6104    12    12062.5589    10988.4395   104386    8.90%
* 21788+17749                        11801.1857    11033.5260             6.50%

Performing restart 2

Repeating presolve.
Tried aggregator 1 time.
MIP Presolve eliminated 0 rows and 21 columns.
Reduced MIP has 13 rows, 97 columns, and 1030 nonzeros.
Reduced MIP has 95 binaries, 1 generals, 0 SOSs, and 0 indicators.
Presolve time = 0.00 sec. (0.35 ticks)
Tried aggregator 1 time.
Reduced MIP has 13 rows, 97 columns, and 1030 nonzeros.
Reduced MIP has 95 binaries, 1 generals, 0 SOSs, and 0 indicators.
Presolve time = 0.00 sec. (0.46 ticks)
Represolve time = 0.01 sec. (1.42 ticks)

Repeating presolve.
Tried aggregator 1 time.
Reduced MIP has 13 rows, 97 columns, and 1030 nonzeros.
Reduced MIP has 96 binaries, 0 generals, 0 SOSs, and 0 indicators.
Presolve time = 0.00 sec. (0.33 ticks)
Tried aggregator 1 time.
Reduced MIP has 13 rows, 97 columns, and 1030 nonzeros.
Reduced MIP has 96 binaries, 0 generals, 0 SOSs, and 0 indicators.
Presolve time = 0.00 sec. (0.46 ticks)
Represolve time = 0.00 sec. (1.26 ticks)
  37358   965    10897.0280    12    11801.1857    11115.0710   245407    5.81%
  63859 25346    11534.9126    11    11801.1857    11115.0710   411006    5.81%
  92484 51594    11257.0056    12    11801.1857    11191.6419   596152    5.17%
 122622 76836    11270.9878    10    11801.1857    11246.1653   778480    4.70%
 153904 102914    11720.9428     9    11801.1857    11287.3300   970859    4.35%
 186407 128795    11345.5023    11    11801.1857    11319.9496  1163246    4.08%
 219334 154004    11381.2767    12    11801.1857    11347.4272  1358323    3.85%
 253292 179980    11382.8130    11    11801.1857    11371.2296  1561894    3.64%
 394235 276395    11479.6302    12    11801.1857    11444.5490  2375179    3.02%
Elapsed time = 21.52 sec. (3111.09 ticks, tree = 62.08 MB, solutions = 18)
 541379 364558    11503.7870    12    11801.1857    11498.3828  3201899    2.57%
 697735 443965        cutoff          11801.1857    11543.4177  4074506    2.18%
 867196 512052    11595.5588    12    11801.1857    11583.3957  4988063    1.85%
 1043351 559423        cutoff          11801.1857    11618.3402  5885689    1.55%
 1225629 582926    11736.1352    12    11801.1857    11649.7208  6768873    1.28%
 1412865 571971    11703.6479    12    11801.1857    11677.9752  7607562    1.04%
 1617682 517908        cutoff          11801.1857    11705.8388  8423014    0.81%

Clique cuts applied:  0
Flow path cuts applied:  0
Gomory fractional cuts applied:  0
Disjunctive cuts applied:  0
Cone linearizations applied:  0

Root node processing (before b&c):
  Real time             =    0.32 sec. (11.56 ticks)
Parallel b&c, 8 threads:
  Real time             =   75.27 sec. (10002.20 ticks)
  Sync time (average)   =   50.42 sec.
  Wait time (average)   =    1.50 sec.
                          ------------
Total (root+branch&cut) =   75.59 sec. (10013.76 ticks)
Gap: 0.75%
Upper bound: 11801.2
Lower bound: 11712.7
End of CPLEX run. Time: 75.6118 seconds
